NAME : in_house_7_4
TYPE : TSP
DIMENSION : 7
EDGE_WEIGHT_TYPE : EXPLICIT
EDGE_WEIGHT_FORMAT : UPPER_ROW
COMMENT : INVERSION_SHIFT=1
EDGE_WEIGHT_SECTION
17
28
16
41
28
49
41
8
25
25
36
17
32
10
31
26
11
5
43
25
20
